285102.0
3757
0 1 2 4 6 8 9 10 11 13 14 15 17 18 19 20 22 23 24 25 27 28 29 30 31 32 33 34 36 37 38 40 41 42 43 44 45 47 50 52 53 54 56 57 59 60 61 62 64 65 67 68 70 71 72 73 75 76 77 78 79 80 81 82 86 87 90 91 92 93 94 95 96 98 99 100 101 103 104 105 106 107 108 109 110 111 113 115 116 117 118 120 121 122 123 124 131 132 133 134 135 136 137 138 139 142 144 145 146 147 148 149 150 151 152 154 155 156 157 158 159 160 162 163 165 166 167 168 169 170 172 174 175 177 178 179 180 181 183 184 185 186 187 188 190 191 192 193 194 195 196 199 